p tw 80 1717
1 2
1 19
1 4
1 35
1 40
1 41
1 44
1 6
1 64
1 70
1 8
1 78
1 10
2 19
2 4
2 35
2 40
2 41
2 44
2 6
2 64
2 70
2 8
2 78
2 10
11 12
11 15
11 16
11 20
11 22
11 24
11 25
11 26
11 27
11 35
11 38
11 39
11 41
11 42
11 45
11 47
11 50
11 52
11 55
11 57
11 61
11 62
11 65
11 68
11 69
11 70
11 71
11 72
11 73
11 75
11 77
11 78
11 79
11 80
12 13
12 14
12 15
12 16
12 17
12 18
12 19
12 20
12 21
12 22
12 23
12 24
12 25
12 26
12 27
12 28
12 29
12 30
12 31
12 32
12 33
12 34
12 35
12 36
12 37
12 38
12 39
12 40
12 41
12 42
12 43
12 44
12 45
12 46
12 47
12 48
12 49
12 50
12 51
12 52
12 53
12 54
12 55
12 56
12 57
12 58
12 59
12 60
12 61
12 62
12 63
12 64
12 65
12 66
12 67
12 68
12 69
12 70
12 71
12 72
12 73
12 74
12 75
12 76
12 77
12 78
12 79
12 80
13 15
13 17
13 18
13 20
13 22
13 24
13 30
13 32
13 33
13 35
13 36
13 38
13 40
13 41
13 42
13 43
13 44
13 46
13 48
13 50
13 53
13 54
13 57
13 58
13 65
13 69
13 70
13 71
13 72
13 74
13 77
13 78
13 80
14 15
14 20
14 22
14 24
14 26
14 31
14 35
14 38
14 39
14 41
14 42
14 46
14 50
14 52
14 57
14 61
14 62
14 65
14 68
14 69
14 70
14 71
14 72
14 75
14 77
14 78
14 80
15 16
15 17
15 20
15 22
15 24
15 25
15 26
15 27
15 29
15 30
15 31
15 32
15 33
15 34
15 35
15 37
15 38
15 39
15 41
15 42
15 43
15 44
15 45
15 46
15 47
15 48
15 49
15 50
15 51
15 52
15 53
15 54
15 55
15 56
15 57
15 58
15 61
15 62
15 64
15 65
15 68
15 69
15 70
15 71
15 72
15 73
15 74
15 75
15 77
15 78
15 79
15 80
16 25
16 26
16 27
16 39
16 41
16 45
16 47
16 50
16 52
16 55
16 57
16 61
16 62
16 65
16 68
16 70
16 71
16 72
16 73
16 75
16 79
16 80
17 18
17 22
17 24
17 30
17 32
17 33
17 34
17 35
17 36
17 37
17 38
17 40
17 41
17 43
17 44
17 48
17 49
17 50
17 51
17 53
17 54
17 56
17 57
17 58
17 64
17 65
17 69
17 70
17 71
17 72
17 74
17 77
17 78
18 22
18 24
18 29
18 30
18 31
18 32
18 33
18 34
18 35
18 37
18 38
18 40
18 41
18 43
18 44
18 46
18 48
18 49
18 50
18 51
18 53
18 54
18 56
18 57
18 58
18 61
18 63
18 64
18 65
18 69
18 70
18 74
18 76
18 78
19 21
19 22
19 23
19 24
19 28
19 30
19 32
19 34
19 35
19 36
19 37
19 40
19 41
19 43
19 44
19 49
19 51
19 56
19 59
19 60
19 63
19 64
19 65
19 66
19 67
19 70
19 74
19 76
19 78
20 22
20 24
20 26
20 29
20 30
20 31
20 33
20 35
20 38
20 39
20 41
20 42
20 43
20 44
20 46
20 48
20 50
20 52
20 54
20 55
20 57
20 61
20 62
20 65
20 68
20 69
20 70
20 71
20 72
20 74
20 75
20 77
20 78
20 79
20 80
3 11
3 12
3 15
3 16
3 22
3 24
3 25
3 26
3 27
3 4
3 5
3 41
3 42
3 45
3 47
3 50
3 52
3 55
3 57
3 7
3 62
3 65
3 68
3 70
3 71
3 72
3 73
3 75
3 77
3 80
3 9
21 24
21 35
21 40
21 41
21 44
21 59
21 64
21 70
21 78
22 23
22 24
22 26
22 28
22 29
22 30
22 31
22 32
22 33
22 34
22 35
22 36
22 37
22 38
22 39
22 40
22 41
22 42
22 43
22 44
22 46
22 48
22 49
22 50
22 51
22 52
22 53
22 54
22 55
22 56
22 57
22 58
22 59
22 60
22 61
22 62
22 63
22 64
22 65
22 66
22 67
22 68
22 69
22 70
22 71
22 72
22 73
22 74
22 75
22 76
22 77
22 78
22 79
22 80
23 24
23 28
23 30
23 32
23 34
23 35
23 36
23 37
23 40
23 41
23 43
23 44
23 49
23 50
23 51
23 56
23 60
23 63
23 64
23 65
23 66
23 67
23 69
23 70
23 74
23 76
23 78
24 26
24 28
24 29
24 30
24 31
24 32
24 33
24 34
24 35
24 36
24 37
24 38
24 39
24 40
24 41
24 42
24 43
24 44
24 46
24 48
24 49
24 50
24 51
24 52
24 53
24 54
24 55
24 56
24 57
24 58
24 59
24 60
24 61
24 62
24 63
24 64
24 65
24 66
24 67
24 68
24 69
24 70
24 71
24 72
24 73
24 74
24 75
24 76
24 77
24 78
24 79
24 80
25 26
25 27
25 41
25 45
25 50
25 52
25 55
25 57
25 61
25 62
25 65
25 68
25 70
25 71
25 72
25 73
25 75
25 80
26 27
26 31
26 38
26 39
26 41
26 42
26 43
26 45
26 46
26 47
26 50
26 52
26 54
26 55
26 57
26 61
26 62
26 65
26 68
26 70
26 71
26 72
26 73
26 74
26 75
26 77
26 79
26 80
27 47
27 50
27 55
27 57
27 61
27 62
27 65
27 68
27 70
27 71
27 72
27 73
27 75
27 80
28 30
28 32
28 34
28 35
28 36
28 37
28 40
28 41
28 44
28 49
28 56
28 60
28 63
28 64
28 65
28 66
28 67
28 70
28 76
28 78
29 30
29 33
29 35
29 38
29 40
29 41
29 42
29 43
29 44
29 46
29 48
29 50
29 52
29 54
29 57
29 61
29 65
29 69
29 70
29 71
29 72
29 74
29 77
29 78
29 80
30 31
30 32
30 33
30 34
30 35
30 36
30 37
30 38
30 40
30 41
30 42
30 43
30 44
30 46
30 48
30 49
30 50
30 51
30 52
30 53
30 54
30 56
30 57
30 58
30 60
30 61
30 63
30 64
30 65
30 66
30 69
30 70
30 71
30 72
30 74
30 75
30 76
30 77
30 78
30 80
4 11
4 12
4 13
4 14
4 15
4 16
4 17
4 18
4 19
4 20
4 21
4 22
4 23
4 24
4 25
4 26
4 28
4 29
4 30
4 31
4 32
4 33
4 34
4 35
4 36
4 37
4 38
4 39
4 40
4 5
4 41
4 42
4 43
4 44
4 45
4 46
4 48
4 49
4 50
4 6
4 51
4 52
4 53
4 54
4 55
4 56
4 57
4 58
4 59
4 60
4 7
4 61
4 62
4 63
4 64
4 65
4 66
4 67
4 68
4 69
4 70
4 8
4 71
4 72
4 73
4 74
4 75
4 76
4 77
4 78
4 79
4 80
4 9
4 10
31 33
31 35
31 38
31 40
31 41
31 42
31 44
31 46
31 48
31 50
31 52
31 54
31 57
31 61
31 62
31 65
31 68
31 69
31 70
31 71
31 72
31 74
31 75
31 77
31 78
31 80
32 33
32 34
32 35
32 36
32 37
32 38
32 40
32 41
32 43
32 44
32 48
32 49
32 50
32 51
32 53
32 54
32 56
32 58
32 60
32 63
32 64
32 65
32 69
32 70
32 71
32 74
32 76
32 78
33 35
33 38
33 40
33 41
33 43
33 44
33 46
33 48
33 50
33 53
33 54
33 57
33 58
33 61
33 65
33 69
33 70
33 71
33 72
33 74
33 77
33 78
34 35
34 36
34 37
34 40
34 41
34 44
34 48
34 49
34 50
34 56
34 64
34 65
34 69
34 70
34 74
34 76
34 78
35 36
35 37
35 38
35 39
35 40
35 41
35 42
35 43
35 44
35 46
35 48
35 49
35 50
35 51
35 52
35 53
35 54
35 55
35 56
35 57
35 58
35 59
35 60
35 61
35 62
35 63
35 64
35 65
35 66
35 67
35 68
35 69
35 70
35 71
35 72
35 73
35 74
35 75
35 76
35 77
35 78
35 79
35 80
36 37
36 38
36 40
36 41
36 43
36 44
36 49
36 51
36 53
36 54
36 56
36 58
36 60
36 63
36 64
36 65
36 66
36 67
36 70
36 74
36 76
36 78
37 38
37 40
37 41
37 44
37 48
37 49
37 50
37 56
37 58
37 64
37 65
37 69
37 70
37 71
37 74
37 76
37 78
38 39
38 40
38 41
38 42
38 43
38 44
38 46
38 48
38 50
38 51
38 52
38 53
38 54
38 55
38 57
38 58
38 61
38 62
38 64
38 65
38 68
38 69
38 70
38 71
38 72
38 74
38 75
38 77
38 78
38 79
38 80
39 41
39 42
39 45
39 50
39 52
39 57
39 61
39 62
39 65
39 68
39 69
39 70
39 71
39 72
39 75
39 77
39 78
39 79
39 80
40 41
40 43
40 44
40 46
40 48
40 49
40 51
40 53
40 54
40 56
40 57
40 58
40 59
40 60
40 61
40 63
40 64
40 65
40 66
40 67
40 69
40 70
40 74
40 76
40 78
5 11
5 12
5 14
5 15
5 16
5 20
5 22
5 24
5 25
5 26
5 27
5 30
5 31
5 35
5 38
5 39
5 41
5 42
5 45
5 50
5 52
5 55
5 57
5 7
5 61
5 62
5 65
5 68
5 69
5 70
5 71
5 72
5 73
5 75
5 77
5 78
5 79
5 80
5 9
41 42
41 43
41 44
41 45
41 46
41 48
41 49
41 50
41 51
41 52
41 53
41 54
41 55
41 56
41 57
41 58
41 59
41 60
41 61
41 62
41 63
41 64
41 65
41 66
41 67
41 68
41 69
41 70
41 71
41 72
41 73
41 74
41 75
41 76
41 77
41 78
41 79
41 80
42 43
42 44
42 45
42 46
42 50
42 52
42 54
42 55
42 57
42 61
42 62
42 65
42 68
42 69
42 70
42 71
42 72
42 73
42 74
42 75
42 77
42 78
42 79
42 80
43 44
43 46
43 48
43 50
43 51
43 52
43 53
43 54
43 56
43 57
43 58
43 65
43 69
43 70
43 71
43 72
43 74
43 77
43 78
43 80
44 46
44 48
44 49
44 50
44 51
44 53
44 54
44 56
44 57
44 58
44 59
44 60
44 61
44 63
44 64
44 65
44 66
44 67
44 69
44 70
44 71
44 72
44 74
44 76
44 77
44 78
44 80
45 50
45 52
45 55
45 57
45 61
45 62
45 65
45 68
45 70
45 71
45 72
45 73
45 75
45 77
45 79
45 80
46 48
46 50
46 52
46 54
46 57
46 58
46 61
46 65
46 69
46 70
46 71
46 72
46 74
46 75
46 77
46 78
46 80
47 50
47 62
47 65
47 68
47 70
47 71
47 72
47 73
47 75
47 80
48 49
48 50
48 51
48 52
48 53
48 54
48 57
48 58
48 61
48 64
48 65
48 69
48 70
48 71
48 74
48 75
48 78
48 80
49 50
49 56
49 60
49 63
49 64
49 65
49 66
49 67
49 69
49 70
49 76
49 78
50 51
50 52
50 53
50 54
50 55
50 56
50 57
50 58
50 61
50 62
50 63
50 64
50 65
50 68
50 69
50 70
50 71
50 72
50 73
50 74
50 75
50 76
50 77
50 78
50 79
50 80
6 12
6 13
6 15
6 17
6 18
6 19
6 21
6 22
6 23
6 24
6 28
6 29
6 30
6 31
6 32
6 33
6 34
6 35
6 36
6 37
6 38
6 40
6 41
6 43
6 44
6 46
6 48
6 49
6 50
6 51
6 53
6 54
6 56
6 57
6 58
6 59
6 60
6 7
6 61
6 63
6 64
6 65
6 66
6 67
6 69
6 70
6 8
6 71
6 74
6 76
6 78
6 10
51 53
51 56
51 58
51 65
51 69
51 70
51 71
51 74
51 78
52 54
52 55
52 57
52 61
52 62
52 65
52 68
52 69
52 70
52 71
52 72
52 73
52 74
52 75
52 77
52 78
52 79
52 80
53 54
53 57
53 58
53 65
53 69
53 70
53 71
53 74
53 78
54 57
54 58
54 65
54 69
54 70
54 71
54 72
54 74
54 77
54 78
54 80
55 57
55 61
55 62
55 65
55 68
55 69
55 70
55 71
55 72
55 73
55 75
55 77
55 78
55 79
55 80
56 60
56 63
56 64
56 65
56 66
56 69
56 70
56 74
56 76
56 78
57 58
57 61
57 62
57 65
57 68
57 69
57 70
57 71
57 72
57 73
57 74
57 75
57 77
57 78
57 79
57 80
58 64
58 65
58 69
58 70
58 71
58 72
58 74
58 77
58 78
59 64
59 70
59 78
60 63
60 64
60 65
60 66
60 70
60 76
60 78
7 11
7 12
7 13
7 14
7 15
7 16
7 18
7 20
7 22
7 24
7 25
7 26
7 29
7 30
7 31
7 33
7 35
7 38
7 39
7 40
7 41
7 42
7 43
7 44
7 45
7 46
7 48
7 50
7 52
7 54
7 55
7 57
7 61
7 62
7 65
7 68
7 69
7 70
7 71
7 72
7 73
7 74
7 75
7 77
7 78
7 79
7 80
7 9
61 62
61 65
61 68
61 69
61 70
61 71
61 72
61 73
61 74
61 75
61 77
61 78
61 79
61 80
62 65
62 68
62 69
62 70
62 71
62 72
62 73
62 75
62 77
62 78
62 79
62 80
63 64
63 65
63 66
63 67
63 69
63 70
63 76
63 78
64 65
64 66
64 67
64 69
64 70
64 71
64 74
64 76
64 78
65 66
65 67
65 68
65 69
65 70
65 71
65 72
65 73
65 74
65 75
65 76
65 77
65 78
65 79
65 80
66 70
66 76
66 78
67 70
67 78
68 69
68 70
68 71
68 72
68 73
68 75
68 77
68 78
68 79
68 80
69 70
69 71
69 72
69 74
69 75
69 76
69 77
69 78
69 79
69 80
70 71
70 72
70 73
70 74
70 75
70 76
70 77
70 78
70 79
70 80
8 12
8 15
8 17
8 18
8 19
8 21
8 22
8 23
8 24
8 28
8 30
8 32
8 35
8 36
8 40
8 41
8 44
8 49
8 50
8 56
8 59
8 60
8 63
8 64
8 65
8 66
8 67
8 69
8 70
8 76
8 78
8 10
71 72
71 73
71 74
71 75
71 77
71 78
71 79
71 80
72 73
72 74
72 75
72 77
72 78
72 79
72 80
73 75
73 77
73 80
74 77
74 78
74 80
75 77
75 78
75 79
75 80
76 78
77 78
77 79
77 80
78 79
78 80
79 80
9 11
9 12
9 13
9 14
9 15
9 16
9 20
9 22
9 24
9 25
9 26
9 27
9 29
9 30
9 31
9 35
9 38
9 39
9 41
9 42
9 43
9 44
9 45
9 46
9 47
9 50
9 52
9 54
9 55
9 57
9 61
9 62
9 65
9 68
9 69
9 70
9 71
9 72
9 73
9 74
9 75
9 77
9 78
9 79
9 80
10 12
10 19
10 21
10 22
10 23
10 24
10 28
10 30
10 34
10 35
10 36
10 37
10 40
10 41
10 44
10 49
10 56
10 59
10 60
10 63
10 64
10 65
10 66
10 67
10 70
10 76
10 78
